NAME : in_house_8_22
TYPE : TSP
DIMENSION : 8
EDGE_WEIGHT_TYPE : EXPLICIT
EDGE_WEIGHT_FORMAT : UPPER_ROW
COMMENT : INVERSION_SHIFT=2
EDGE_WEIGHT_SECTION
56
47
26
44
64
6
12
41
53
15
35
43
48
39
55
8
60
42
31
10
39
44
28
63
56
57
3
39
